 vasp.5.4.4.18Apr17-6-g9f103f2a35 (build Nov 06 2019 09:29:44) complex

 executed on             LinuxIFC date 2023.01.14  02:34:51

 INCAR:
 POTCAR:    PAW_PBE Cu_pv 06Sep2000
 POTCAR:    PAW_PBE Pt_pv 12Dec2005

 POTCAR:    PAW_PBE Cu_pv 06Sep2000
   VRHFIN =Cu: d10 p1

   TITEL  = PAW_PBE Cu_pv 06Sep2000
   POMASS =   63.546; ZVAL   =   17.000    mass and valenz
   ENMAX  =  368.648; ENMIN  =  276.486 eV

 POTCAR:    PAW_PBE Pt_pv 12Dec2005
   VRHFIN =Pt: 5ps1d9

   TITEL  = PAW_PBE Pt_pv 12Dec2005
   POMASS =  195.080; ZVAL   =   16.000    mass and valenz
   ENMAX  =  294.607; ENMIN  =  220.955 eV

  PAW_PBE Cu_pv 06Sep2000               :
  PAW_PBE Pt_pv 12Dec2005               :

 POSCAR: MLIP output to VASP
  positions in cartesian coordinates
 exchange correlation table for  LEXCH =        8
   RHO(1)=    0.500       N(1)  =     2000
   RHO(2)=  100.500       N(2)  =     4000

 ion  position               nearest neighbor table
   1  0.000  0.000  0.000-
   2  0.667  0.333  0.111-   3 2.77   3 2.77   3 2.77
   3  0.333  0.667  0.222-   2 2.77   2 2.77   2 2.77   4 2.77   4 2.77   4 2.77
   4  0.000  0.000  0.333-   5 2.77   5 2.77   5 2.77   3 2.77   3 2.77   3 2.77
   5  0.667  0.333  0.444-   4 2.77   4 2.77   4 2.77   6 2.77   6 2.77   6 2.77
   6  0.333  0.667  0.556-   7 2.77   7 2.77   7 2.77   5 2.77   5 2.77   5 2.77
   7  0.000  0.000  0.667-   6 2.77   6 2.77   6 2.77   8 2.77   8 2.77   8 2.77
   8  0.667  0.333  0.778-   9 2.77   9 2.77   9 2.77   7 2.77   7 2.77   7 2.77
   9  0.333  0.667  0.889-   8 2.77   8 2.77   8 2.77

  LATTYP: Found a hexagonal cell.
 ALAT       =     2.7689594444
 C/A-ratio  =     7.3484692283

  Lattice vectors:

 A1 = (   0.0000000000,   1.9579500000,   1.9579500000)
 A2 = (   1.9579500000,  -1.9579500000,   0.0000000000)
 A3 = (  11.7477000000,  11.7477000000, -11.7477000000)

Analysis of symmetry for initial positions (statically):
 Subroutine PRICEL returns:
 Original cell was already a primitive cell.

 Routine SETGRP: Setting up the symmetry group for a
 hexagonal supercell.

 Subroutine GETGRP returns: Found 12 space group operations
 (whereof 12 operations were pure point group operations)
 out of a pool of 24 trial point group operations.

The static configuration has the point symmetry D_3d.

Analysis of symmetry for dynamics (positions and initial velocities):
 Subroutine PRICEL returns:
 Original cell was already a primitive cell.

 Routine SETGRP: Setting up the symmetry group for a
 hexagonal supercell.

 Subroutine GETGRP returns: Found 12 space group operations
 (whereof 12 operations were pure point group operations)
 out of a pool of 24 trial point group operations.

The dynamic configuration has the point symmetry D_3d.

 Subroutine INISYM returns: Found 12 space group operations
 (whereof 12 operations are pure point group operations),
 and found     1 'primitive' translations

Automatic generation of k-mesh.
 generate k-points for:   30   30    4
Space group operators:
 irot       det(A)        alpha          n_x          n_y          n_z        tau_x        tau_y        tau_z
    1     1.000000     0.000001     1.000000     0.000000     0.000000     0.000000     0.000000     0.000000
    2    -1.000000     0.000001     1.000000     0.000000     0.000000     0.000000     0.000000     0.000000
    3     1.000000   120.000000    -0.577350    -0.577350     0.577350     0.000000     0.000000     0.000000
    4    -1.000000   120.000000    -0.577350    -0.577350     0.577350     0.000000     0.000000     0.000000
    5     1.000000   120.000000     0.577350     0.577350    -0.577350     0.000000     0.000000     0.000000
    6    -1.000000   120.000000     0.577350     0.577350    -0.577350     0.000000     0.000000     0.000000
    7     1.000000   180.000000    -0.000000     0.707107     0.707107     0.000000     0.000000     0.000000
    8    -1.000000   180.000000    -0.000000     0.707107     0.707107     0.000000     0.000000     0.000000
    9     1.000000   180.000000     0.707107    -0.707107    -0.000000     0.000000     0.000000     0.000000
   10    -1.000000   180.000000     0.707107    -0.707107    -0.000000     0.000000     0.000000     0.000000
   11     1.000000   180.000000     0.707107     0.000000     0.707107     0.000000     0.000000     0.000000
   12    -1.000000   180.000000     0.707107     0.000000     0.707107     0.000000     0.000000     0.000000

 Subroutine IBZKPT returns following result:

 Found    348 irreducible k-points:

 Following reciprocal coordinates:
            Coordinates               Weight
  0.000000  0.000000  0.000000      1.000000
  0.033333 -0.000000  0.000000      6.000000
  0.066667 -0.000000  0.000000      6.000000
  0.100000 -0.000000 -0.000000      6.000000
  0.133333 -0.000000  0.000000      6.000000
  0.166667 -0.000000  0.000000      6.000000
  0.200000  0.000000 -0.000000      6.000000
  0.233333 -0.000000 -0.000000      6.000000
  0.266667 -0.000000  0.000000      6.000000
  0.300000  0.000000  0.000000      6.000000
  0.333333  0.000000  0.000000      6.000000
  0.366667 -0.000000 -0.000000      6.000000
  0.400000  0.000000 -0.000000      6.000000
  0.433333 -0.000000 -0.000000      6.000000
  0.466667 -0.000000 -0.000000      6.000000
  0.500000 -0.000000  0.000000      3.000000
  0.033333  0.033333 -0.000000      6.000000
  0.066667  0.033333  0.000000     12.000000
  0.100000  0.033333 -0.000000     12.000000
  0.133333  0.033333  0.000000     12.000000
  0.166667  0.033333 -0.000000     12.000000
  0.200000  0.033333 -0.000000     12.000000
  0.233333  0.033333  0.000000     12.000000
  0.266667  0.033333  0.000000     12.000000
  0.300000  0.033333  0.000000     12.000000
  0.333333  0.033333  0.000000     12.000000
  0.366667  0.033333 -0.000000     12.000000
  0.400000  0.033333 -0.000000     12.000000
  0.433333  0.033333 -0.000000     12.000000
  0.466667  0.033333 -0.000000     12.000000
  0.066667  0.066667 -0.000000      6.000000
  0.100000  0.066667  0.000000     12.000000
  0.133333  0.066667  0.000000     12.000000
  0.166667  0.066667 -0.000000     12.000000
  0.200000  0.066667 -0.000000     12.000000
  0.233333  0.066667 -0.000000     12.000000
  0.266667  0.066667  0.000000     12.000000
  0.300000  0.066667  0.000000     12.000000
  0.333333  0.066667 -0.000000     12.000000
  0.366667  0.066667  0.000000     12.000000
  0.400000  0.066667 -0.000000     12.000000
  0.433333  0.066667 -0.000000     12.000000
  0.466667  0.066667  0.000000      6.000000
  0.100000  0.100000 -0.000000      6.000000
  0.133333  0.100000  0.000000     12.000000
  0.166667  0.100000  0.000000     12.000000
  0.200000  0.100000  0.000000     12.000000
  0.233333  0.100000  0.000000     12.000000
  0.266667  0.100000  0.000000     12.000000
  0.300000  0.100000  0.000000     12.000000
  0.333333  0.100000  0.000000     12.000000
  0.366667  0.100000 -0.000000     12.000000
  0.400000  0.100000  0.000000     12.000000
  0.433333  0.100000  0.000000     12.000000
  0.133333  0.133333 -0.000000      6.000000
  0.166667  0.133333  0.000000     12.000000
  0.200000  0.133333  0.000000     12.000000
  0.233333  0.133333  0.000000     12.000000
  0.266667  0.133333  0.000000     12.000000
  0.300000  0.133333  0.000000     12.000000
[...]
  0.333333  0.200000  0.500000     12.000000
  0.366667  0.200000  0.500000     12.000000
  0.400000  0.200000  0.500000      6.000000
  0.233333  0.233333  0.500000      6.000000
  0.266667  0.233333  0.500000     12.000000
  0.300000  0.233333  0.500000     12.000000
  0.333333  0.233333  0.500000     12.000000
  0.366667  0.233333  0.500000     12.000000
  0.266667  0.266667  0.500000      6.000000
  0.300000  0.266667  0.500000     12.000000
  0.333333  0.266667  0.500000     12.000000
  0.366667  0.266667  0.500000      6.000000
  0.300000  0.300000  0.500000      6.000000
  0.333333  0.300000  0.500000     12.000000
  0.333333  0.333333  0.500000      2.000000

 Following cartesian coordinates:
            Coordinates               Weight
  0.000000  0.000000  0.000000      1.000000
  0.005675  0.005675  0.011350      6.000000
  0.011350  0.011350  0.022699      6.000000
  0.017025  0.017025  0.034049      6.000000
  0.022699  0.022699  0.045399      6.000000
  0.028374  0.028374  0.056749      6.000000
  0.034049  0.034049  0.068098      6.000000
  0.039724  0.039724  0.079448      6.000000
  0.045399  0.045399  0.090798      6.000000
  0.051074  0.051074  0.102148      6.000000
  0.056749  0.056749  0.113497      6.000000
  0.062424  0.062424  0.124847      6.000000
  0.068098  0.068098  0.136197      6.000000
  0.073773  0.073773  0.147547      6.000000
  0.079448  0.079448  0.158896      6.000000
  0.085123  0.085123  0.170246      3.000000
  0.017025  0.000000  0.017025      6.000000
  0.022699  0.005675  0.028374     12.000000
  0.028374  0.011350  0.039724     12.000000
  0.034049  0.017025  0.051074     12.000000
  0.039724  0.022699  0.062424     12.000000
  0.045399  0.028374  0.073773     12.000000
  0.051074  0.034049  0.085123     12.000000
  0.056749  0.039724  0.096473     12.000000
  0.062424  0.045399  0.107823     12.000000
  0.068098  0.051074  0.119172     12.000000
  0.073773  0.056749  0.130522     12.000000
  0.079448  0.062424  0.141872     12.000000
  0.085123  0.068098  0.153221     12.000000
  0.090798  0.073773  0.164571     12.000000
  0.034049  0.000000  0.034049      6.000000
  0.039724  0.005675  0.045399     12.000000
  0.045399  0.011350  0.056749     12.000000
  0.051074  0.017025  0.068098     12.000000
  0.056749  0.022699  0.079448     12.000000
  0.062424  0.028374  0.090798     12.000000
  0.068098  0.034049  0.102148     12.000000
  0.073773  0.039724  0.113497     12.000000
  0.079448  0.045399  0.124847     12.000000
  0.085123  0.051074  0.136197     12.000000
  0.090798  0.056749  0.147547     12.000000
  0.096473  0.062424  0.158896     12.000000
  0.102148  0.068098  0.170246      6.000000
  0.051074  0.000000  0.051074      6.000000
  0.056749  0.005675  0.062424     12.000000
  0.062424  0.011350  0.073773     12.000000
  0.068098  0.017025  0.085123     12.000000
  0.073773  0.022699  0.096473     12.000000
  0.079448  0.028374  0.107823     12.000000
  0.085123  0.034049  0.119172     12.000000
  0.090798  0.039724  0.130522     12.000000
  0.096473  0.045399  0.141872     12.000000
  0.102148  0.051074  0.153221     12.000000
  0.107823  0.056749  0.164571     12.000000
  0.068098  0.000000  0.068098      6.000000
  0.073773  0.005675  0.079448     12.000000
  0.079448  0.011350  0.090798     12.000000
  0.085123  0.017025  0.102148     12.000000
  0.090798  0.022699  0.113497     12.000000
  0.096473  0.028374  0.124847     12.000000
[...]
  0.139034  0.036887  0.133359     12.000000
  0.144709  0.042562  0.144709     12.000000
  0.150384  0.048236  0.156059      6.000000
  0.133359  0.014187  0.104985      6.000000
  0.139034  0.019862  0.116335     12.000000
  0.144709  0.025537  0.127685     12.000000
  0.150384  0.031212  0.139034     12.000000
  0.156059  0.036887  0.150384     12.000000
  0.150384  0.014187  0.122010      6.000000
[...]
 k-point ** :   0.2333 0.0333 0.2500  plane waves:    2185
 k-point ** :   0.2667 0.0333 0.2500  plane waves:    2187
 k-point ** :   0.3000 0.0333 0.2500  plane waves:    2181
 k-point ** :   0.3333 0.0333 0.2500  plane waves:    2171
 k-point ** :   0.3667 0.0333 0.2500  plane waves:    2168
 k-point ** :   0.4000 0.0333 0.2500  plane waves:    2164
 k-point ** :   0.4333 0.0333 0.2500  plane waves:    2165
 k-point ** :   0.4667 0.0333 0.2500  plane waves:    2168
 k-point ** :   0.5000 0.0333 0.2500  plane waves:    2168
 k-point ** :  -0.4667 0.0333 0.2500  plane waves:    2165
 k-point ** :  -0.4333 0.0333 0.2500  plane waves:    2164
 k-point ** :  -0.4000 0.0333 0.2500  plane waves:    2168
 k-point ** :  -0.3667 0.0333 0.2500  plane waves:    2171
 k-point ** :  -0.3333 0.0333 0.2500  plane waves:    2181
 k-point ** :  -0.3000 0.0333 0.2500  plane waves:    2187
 k-point ** :  -0.2667 0.0333 0.2500  plane waves:    2185
 k-point ** :  -0.2333 0.0333 0.2500  plane waves:    2187
 k-point ** :  -0.2000 0.0333 0.2500  plane waves:    2196
 k-point ** :  -0.1667 0.0333 0.2500  plane waves:    2213
 k-point ** :  -0.1333 0.0333 0.2500  plane waves:    2223
 k-point ** :  -0.1000 0.0333 0.2500  plane waves:    2233
 k-point ** :   0.0667 0.0667 0.2500  plane waves:    2225
 k-point ** :   0.1000 0.0667 0.2500  plane waves:    2217
 k-point ** :   0.1333 0.0667 0.2500  plane waves:    2197
 k-point ** :   0.1667 0.0667 0.2500  plane waves:    2191
 k-point ** :   0.2000 0.0667 0.2500  plane waves:    2186
 k-point ** :   0.2333 0.0667 0.2500  plane waves:    2187
 k-point ** :   0.2667 0.0667 0.2500  plane waves:    2176
 k-point ** :   0.3000 0.0667 0.2500  plane waves:    2171
 k-point ** :   0.3333 0.0667 0.2500  plane waves:    2168
 k-point ** :   0.3667 0.0667 0.2500  plane waves:    2164
 k-point ** :   0.4000 0.0667 0.2500  plane waves:    2171
[...]
 k-point ** :   0.3333 0.2000 0.5000  plane waves:    2182
 k-point ** :   0.3667 0.2000 0.5000  plane waves:    2186
 k-point ** :   0.4000 0.2000 0.5000  plane waves:    2184
 k-point ** :   0.2333 0.2333 0.5000  plane waves:    2206
 k-point ** :   0.2667 0.2333 0.5000  plane waves:    2196
 k-point ** :   0.3000 0.2333 0.5000  plane waves:    2178
 k-point ** :   0.3333 0.2333 0.5000  plane waves:    2172
 k-point ** :   0.3667 0.2333 0.5000  plane waves:    2176
 k-point ** :   0.2667 0.2667 0.5000  plane waves:    2190
 k-point ** :   0.3000 0.2667 0.5000  plane waves:    2182
 k-point ** :   0.3333 0.2667 0.5000  plane waves:    2170
 k-point ** :   0.3667 0.2667 0.5000  plane waves:    2164
 k-point ** :   0.3000 0.3000 0.5000  plane waves:    2160
 k-point ** :   0.3333 0.3000 0.5000  plane waves:    2160
 k-point ** :   0.3333 0.3333 0.5000  plane waves:    2166

 maximum and minimum number of plane-waves per node :      2253     2151

 maximum number of plane-waves:      2253
 maximum index in each direction:
   IXMAX=    4   IYMAX=    4   IZMAX=   31
   IXMIN=   -4   IYMIN=   -4   IZMIN=  -32

 serial   3D FFT for wavefunctions
 parallel 3D FFT for charge:
    minimum data exchange during FFTs selected (reduces bandwidth)

 Broyden mixing: mesh for mixing (old mesh)
   NGX =  9   NGY =  9   NGZ = 63
  (NGX  = 36   NGY  = 36   NGZ  =256)
  gives a total of   5103 points

 initial charge density was supplied:
 charge density of overlapping atoms calculated
 number of electron     145.0000000 magnetization
 keeping initial charge density in first step

 Maximum index for augmentation-charges         2404 (set IRDMAX)

 First call to EWALD:  gamma=   0.345
 Maximum number of real-space cells 5x 5x 1
 Maximum number of reciprocal cells 2x 2x 9

--------------------------------------- Iteration      1(   1)  ---------------------------------------

 eigenvalue-minimisations  : 71860
 total energy-change (2. order) : 0.1742964E+04  (-0.8040385E+04)
 number of electron     145.0000000 magnetization
 augmentation part      145.0000000 magnetization

 Free energy of the ion-electron system (eV)
  alpha Z        PSCENC =      1401.74017612
  Ewald energy   TEWEN  =    -19680.02412815
  -Hartree energ DENC   =     -4595.61487174
  -exchange      EXHF   =         0.00000000
  -V(xc)+E(xc)   XCENC  =       618.87942685
  PAW double counting   =     20005.89735317   -19876.01545837
  entropy T*S    EENTRO =        -0.00000155
  eigenvalues    EBANDS =       323.01609248
  atomic energy  EATOM  =     23545.08561592
  Solvation  Ediel_sol  =         0.00000000
  free energy    TOTEN  =      1742.96420475 eV

  energy without entropy =     1742.96420630  energy(sigma->0) =     1742.96420513

[...]

 eigenvalue-minimisations  : 68810
 total energy-change (2. order) :-0.1712690E+04  (-0.1632663E+04)
 number of electron     145.0000000 magnetization
 augmentation part      145.0000000 magnetization

[...]

 Broyden mixing:
  rms(total) = 0.43323E+01    rms(broyden)= 0.43316E+01
  rms(prec ) = 0.43671E+01
  weight for this iteration     100.00

[...]

 eigenvalues of (default mixing * dielectric matrix)
  average eigenvalue GAMMA=   1.0866
  1.0866

[...]

 eigenvalue-minimisations  : 93460
 total energy-change (2. order) :-0.1011396E-01  (-0.8087691E-02)
 number of electron     145.0000050 magnetization
 augmentation part       43.7783335 magnetization

[...]

 Broyden mixing:
  rms(total) = 0.20081E-01    rms(broyden)= 0.20078E-01
  rms(prec ) = 0.22872E-01
  weight for this iteration     100.00

 eigenvalues of (default mixing * dielectric matrix)
  average eigenvalue GAMMA=   1.1445
  2.8320  2.8320  2.6810  2.6810  2.4835  1.4686  1.4686  0.8417  0.8417  0.7308
  0.7308  0.8471  0.8471  0.7744  0.7744  0.0779  0.2280  0.2280  0.2821  0.3886
  0.6265  0.5126

[...]

--------------------------------------- Iteration      1(  28)  ---------------------------------------

 eigenvalue-minimisations  : 39460
 total energy-change (2. order) : 0.5358112E-04  (-0.1062849E-04)
 number of electron     145.0000051 magnetization
 augmentation part       43.7656128 magnetization

 Free energy of the ion-electron system (eV)
  alpha Z        PSCENC =      1401.74017612
  Ewald energy   TEWEN  =    -19680.02412815
  -Hartree energ DENC   =     -4404.57414271
  -exchange      EXHF   =         0.00000000
  -V(xc)+E(xc)   XCENC  =       610.81818608
  PAW double counting   =     22398.99183405   -22294.91295016
  entropy T*S    EENTRO =         0.00000452
  eigenvalues    EBANDS =     -1629.54820191
  atomic energy  EATOM  =     23545.08561592
  Solvation  Ediel_sol  =         0.00000000
  free energy    TOTEN  =       -52.42360623 eV

  energy without entropy =      -52.42361075  energy(sigma->0) =      -52.42360736

 average (electrostatic) potential at core
  the test charge radii are     0.8297  0.9952
  (the norm of the test charge is              1.0000)
       1 -74.6205       2 -89.3736       3 -89.5429       4 -89.5799       5 -89.5722
       6 -89.5722       7 -89.5799       8 -89.5429       9 -89.3736

 E-fermi :  11.2190     XC(G=0): -13.7857     alpha+bet :-16.6407

 k-point     1 :       0.0000    0.0000    0.0000
  band No.  band energies     occupation
      1     -58.0802      2.00000
      2     -58.0416      2.00000
      3     -58.0416      2.00000
      4     -41.7665      2.00000
      5     -41.6982      2.00000
      6     -41.6056      2.00000
      7     -41.5050      2.00000
      8     -41.4131      2.00000
      9     -41.3786      2.00000
     10     -41.3786      2.00000
     11     -41.3701      2.00000
     12     -41.3701      2.00000
     13     -41.3481      2.00000
     14     -41.3481      2.00000
     15     -41.3426      2.00000
     16     -41.3263      2.00000
     17     -41.3263      2.00000
     18     -41.3170      2.00000
     19     -41.3170      2.00000
     20     -41.3126      2.00000
     21     -41.3126      2.00000
     22     -41.1887      2.00000
     23     -41.1887      2.00000
     24     -41.1886      2.00000
     25     -41.1886      2.00000
     26     -41.1672      2.00000
     27     -41.1669      2.00000
     28       1.0458      2.00000
     29       1.4641      2.00000
     30       1.9046      2.00000
     31       2.7577      2.00000
     32       3.1160      2.00000
     33       3.7458      2.00000
     34       3.7939      2.00000
     35       3.8660      2.00000
     36       5.3671      2.00000
     37       7.0767      2.00000
     38       7.0984      2.00000
     39       7.3196      2.00000
     40       7.3473      2.00000
     41       7.3791      2.00000
     42       7.3791      2.00000
     43       7.4592      2.00000
     44       7.4592      2.00000
     45       7.4903      2.00000
     46       7.4903      2.00000
     47       7.6112      2.00000
     48       7.6112      2.00000
     49       7.6555      2.00000
     50       7.6555      2.00000
     51       7.7445      2.00000
     52       7.7445      2.00000
     53       7.8289      2.00000
     54       7.8289      2.00000
     55       7.9117      2.00000
     56       7.9117      2.00000
     57       7.9434      2.00000
     58       8.0871      2.00000
     59       8.7610      2.00000
     60       8.9647      2.00000
[...]
     76      10.5452      2.00000
     77      10.5452      2.00000
     78      11.0224      2.00000
     79      11.0224      2.00000
     80      11.1897      1.99919
     81      11.1897      1.99919
     82      17.0799      0.00000
     83      17.8404      0.00000
     84      21.0198      0.00000
     85      21.5796      0.00000
     86      25.0735      0.00000
     87      25.3624      0.00000
     88      25.5626      0.00000
     89      26.0154      0.00000
     90      26.0566      0.00000

[...]

 k-point   348 :       0.3333    0.3333    0.5000
  band No.  band energies     occupation
      1     -58.0769      2.00000
      2     -58.0615      2.00000
      3     -58.0614      2.00000
      4     -41.6789      2.00000
      5     -41.6789      2.00000
      6     -41.6732      2.00000
      7     -41.6511      2.00000
      8     -41.6511      2.00000
      9     -41.6417      2.00000
     10     -41.6057      2.00000
     11     -41.6051      2.00000
     12     -41.6051      2.00000
     13     -41.5768      2.00000
     14     -41.5702      2.00000
     15     -41.5702      2.00000
     16     -41.5008      2.00000
     17     -41.5008      2.00000
     18     -41.4555      2.00000
     19     -41.4496      2.00000
     20     -41.4423      2.00000
     21     -41.4423      2.00000
     22     -41.4261      2.00000
     23     -41.4221      2.00000
     24     -41.3746      2.00000
     25     -41.3746      2.00000
     26     -41.1514      2.00000
     27     -41.1514      2.00000
     28       5.3975      2.00000
     29       5.4010      2.00000
     30       5.4010      2.00000
     31       5.6185      2.00000
     32       5.6566      2.00000
     33       5.6566      2.00000
     34       5.9729      2.00000
     35       5.9729      2.00000
     36       6.0009      2.00000
     37       6.1850      2.00000
     38       6.2216      2.00000
     39       6.2216      2.00000
     40       6.3001      2.00000
     41       6.4674      2.00000
     42       6.4674      2.00000
     43       6.9783      2.00000
     44       7.1856      2.00000
     45       7.2004      2.00000
     46       7.2004      2.00000
     47       7.3235      2.00000
     48       7.3235      2.00000
     49       7.4332      2.00000
     50       7.4712      2.00000
     51       7.4712      2.00000
     52       7.6242      2.00000
     53       8.4969      2.00000
     54       8.4969      2.00000
     55       9.1510      2.00000
     56       9.1510      2.00000
     57       9.1548      2.00000
     58       9.2601      2.00000
     59       9.2601      2.00000
     60       9.3232      2.00000
[...]
     76      15.7193      0.00000
     77      15.7388      0.00000
     78      15.8236      0.00000
     79      16.5398      0.00000
     80      16.5398      0.00000
     81      16.9094      0.00000
     82      16.9095      0.00000
     83      16.9306      0.00000
     84      17.3130      0.00000
     85      18.6566      0.00000
     86      18.6566      0.00000
     87      18.9640      0.00000
     88      18.9640      0.00000
     89      19.1576      0.00000
     90      19.2615      0.00000

 soft charge-density along one line, spin component           1
         0         1         2         3         4         5         6         7         8         9
 total charge-density along one line

------------------------ aborting loop because EDIFF is reached ----------------------------------------

  FORCE on cell =-STRESS in cart. coord.  units (eV):
  Direction    XX          YY          ZZ          XY          YZ          ZX
  Alpha Z  1401.74018  1401.74018  1401.74018
  Ewald   -6560.00360 -6560.00360 -6560.00360   -13.57731    13.57731    13.57731
  Hartree  1468.24064  1468.24064  1468.24064   -18.15987    18.15987    18.15987
  E(xc)    -818.12856  -818.12851  -818.12856    -0.04756     0.04756     0.04752
  Local    1062.61841  1062.61904  1062.61841    27.64465   -27.64465   -27.64529
  n-local  -325.36324  -308.76708  -351.25812   -30.39280    -5.99322   -24.46304
  augment   772.84794   772.84751   772.84794     0.83116    -0.83117    -0.83079
  Kinetic  3006.70661  3027.86700  2978.61209   -29.58519    -6.47001   -33.29868
  Fock        0.00000     0.00000     0.00000     0.00000     0.00000     0.00000
  Total       3.24751     3.24751     3.24751     0.10651    -0.10651    -0.10651
  in kB      38.51094    38.51094    38.51094     1.26303    -1.26303    -1.26303

 VOLUME and BASIS-vectors are now :
  energy-cutoff  :      370.00
  volume of cell :      135.11
      direct lattice vectors                 reciprocal lattice vectors
     0.000000000  1.957950000  1.957950000     0.170246091  0.170246091  0.340492181
     1.957950000 -1.957950000  0.000000000     0.340492181 -0.170246091  0.170246091
    11.747700000 11.747700000-11.747700000     0.028374348  0.028374348 -0.028374348

  length of vectors
     2.768959444  2.768959444 20.347613272     0.417016053  0.417016053  0.049145813

 FORCES acting on ions
    electron-ion (+dipol)            ewald-force                    non-local-force                 convergence-correction
   0.800E-13 -.291E-12 0.181E-12   0.227E-12 0.000E+00 0.455E-12   -.412E-23 0.841E-24 0.495E-23   0.154E-12 -.126E-12 0.263E-12
   -.983E+02 -.983E+02 0.983E+02   0.969E+02 0.969E+02 -.969E+02   0.283E+00 0.283E+00 -.283E+00   0.388E+00 0.388E+00 -.388E+00
   -.706E+02 -.706E+02 0.706E+02   0.699E+02 0.699E+02 -.699E+02   -.593E-01 -.593E-01 0.593E-01   0.815E+00 0.815E+00 -.815E+00
   -.427E+02 -.427E+02 0.427E+02   0.420E+02 0.420E+02 -.420E+02   0.160E-01 0.160E-01 -.160E-01   0.765E+00 0.765E+00 -.765E+00
   -.142E+02 -.142E+02 0.142E+02   0.140E+02 0.140E+02 -.140E+02   -.274E-02 -.274E-02 0.274E-02   0.248E+00 0.248E+00 -.248E+00
   0.142E+02 0.142E+02 -.142E+02   -.140E+02 -.140E+02 0.140E+02   0.274E-02 0.274E-02 -.274E-02   -.248E+00 -.248E+00 0.248E+00
   0.427E+02 0.427E+02 -.427E+02   -.420E+02 -.420E+02 0.420E+02   -.160E-01 -.160E-01 0.160E-01   -.765E+00 -.765E+00 0.765E+00
   0.706E+02 0.706E+02 -.706E+02   -.699E+02 -.699E+02 0.699E+02   0.593E-01 0.593E-01 -.593E-01   -.815E+00 -.815E+00 0.815E+00
   0.983E+02 0.983E+02 -.983E+02   -.969E+02 -.969E+02 0.969E+02   -.283E+00 -.283E+00 0.283E+00   -.388E+00 -.388E+00 0.388E+00
   -.232E-10 -.195E-10 0.212E-10   0.227E-12 0.909E-12 -.142E-13   0.000E+00 0.000E+00 0.000E+00   -.234E-12 -.429E-12 0.471E-12

 POSITION                                       TOTAL-FORCE (eV/Angst)
      0.00000      0.00000      0.00000        -0.000000     -0.000000     -0.000000
      1.95795      1.95795     -0.00000        -0.720345     -0.720345      0.720345
      3.91590      1.95795     -1.95795         0.078209      0.078209     -0.078209
      3.91590      3.91590     -3.91590         0.032717      0.032717     -0.032717
      5.87385      5.87385     -3.91590        -0.005623     -0.005623      0.005623
      7.83180      5.87385     -5.87385         0.005623      0.005623     -0.005623
      7.83180      7.83180     -7.83180        -0.032717     -0.032717      0.032717
      9.78975      9.78975     -7.83180        -0.078209     -0.078209      0.078209
     11.74770      9.78975     -9.78975         0.720345      0.720345     -0.720345
    total drift:                               -0.000000     -0.000000      0.000000

  FREE ENERGIE OF THE ION-ELECTRON SYSTEM (eV)
  free  energy   TOTEN  =       -52.42360623 eV

  energy  without entropy=      -52.42361075  energy(sigma->0) =      -52.42360736

 writing wavefunctions