 vasp.5.4.4.18Apr17-6-g9f103f2a35 (build Nov 06 2019 09:29:44) complex

 executed on             LinuxIFC date 2022.11.09  08:22:38

 INCAR:
 POTCAR:    PAW_PBE Cu_pv 06Sep2000
 POTCAR:    PAW_PBE Pt_pv 12Dec2005
 POTCAR:    PAW_PBE Cu_pv 06Sep2000
   VRHFIN =Cu: d10 p1

   TITEL  = PAW_PBE Cu_pv 06Sep2000
   POMASS =   63.546; ZVAL   =   17.000    mass and valenz
   ENMAX  =  368.648; ENMIN  =  276.486 eV

 POTCAR:    PAW_PBE Pt_pv 12Dec2005
   VRHFIN =Pt: 5ps1d9

   TITEL  = PAW_PBE Pt_pv 12Dec2005
   POMASS =  195.080; ZVAL   =   16.000    mass and valenz
   ENMAX  =  294.607; ENMIN  =  220.955 eV

  PAW_PBE Cu_pv 06Sep2000               :
  PAW_PBE Pt_pv 12Dec2005               :

 POSCAR: MLIP output to VASP
  positions in cartesian coordinates
 exchange correlation table for  LEXCH =        8
   RHO(1)=    0.500       N(1)  =     2000
   RHO(2)=  100.500       N(2)  =     4000

 ion  position               nearest neighbor table
   1  0.000  0.000  0.000-
   2  0.667  0.333  0.111-   3 2.77   3 2.77   3 2.77
   3  0.333  0.667  0.222-   2 2.77   2 2.77   2 2.77   4 2.77   4 2.77   4 2.77
   4  0.000  0.000  0.333-   5 2.77   5 2.77   5 2.77   3 2.77   3 2.77   3 2.77
   5  0.667  0.333  0.444-   4 2.77   4 2.77   4 2.77   6 2.77   6 2.77   6 2.77
   6  0.333  0.667  0.556-   7 2.77   7 2.77   7 2.77   5 2.77   5 2.77   5 2.77
   7  0.000  0.000  0.667-   6 2.77   6 2.77   6 2.77   8 2.77   8 2.77   8 2.77
   8  0.667  0.333  0.778-   9 2.77   9 2.77   9 2.77   7 2.77   7 2.77   7 2.77
   9  0.333  0.667  0.889-   8 2.77   8 2.77   8 2.77

  LATTYP: Found a hexagonal cell.
 ALAT       =     2.7689594444
 C/A-ratio  =     7.3484692283

  Lattice vectors:

 A1 = (   0.0000000000,   1.9579500000,   1.9579500000)
 A2 = (   1.9579500000,  -1.9579500000,   0.0000000000)
 A3 = (  11.7477000000,  11.7477000000, -11.7477000000)

Analysis of symmetry for initial positions (statically):
 Subroutine PRICEL returns:
 Original cell was already a primitive cell.

 Routine SETGRP: Setting up the symmetry group for a
 hexagonal supercell.

 Subroutine GETGRP returns: Found 12 space group operations
 (whereof 12 operations were pure point group operations)
 out of a pool of 24 trial point group operations.

The static configuration has the point symmetry D_3d.

Analysis of symmetry for dynamics (positions and initial velocities):
 Subroutine PRICEL returns:
 Original cell was already a primitive cell.

 Routine SETGRP: Setting up the symmetry group for a
 hexagonal supercell.

 Subroutine GETGRP returns: Found 12 space group operations
 (whereof 12 operations were pure point group operations)
 out of a pool of 24 trial point group operations.

The dynamic configuration has the point symmetry D_3d.

 Subroutine INISYM returns: Found 12 space group operations
 (whereof 12 operations are pure point group operations),
 and found     1 'primitive' translations

 KPOINTS: autoGR kpoint generation:   332 (irred),
  k-points in reciprocal lattice
Space group operators:
 irot       det(A)        alpha          n_x          n_y          n_z        tau_x        tau_y        tau_z
    1     1.000000     0.000001     1.000000     0.000000     0.000000     0.000000     0.000000     0.000000
    2    -1.000000     0.000001     1.000000     0.000000     0.000000     0.000000     0.000000     0.000000
    3     1.000000   120.000000    -0.577350    -0.577350     0.577350     0.000000     0.000000     0.000000
    4    -1.000000   120.000000    -0.577350    -0.577350     0.577350     0.000000     0.000000     0.000000
    5     1.000000   120.000000     0.577350     0.577350    -0.577350     0.000000     0.000000     0.000000
    6    -1.000000   120.000000     0.577350     0.577350    -0.577350     0.000000     0.000000     0.000000
    7     1.000000   180.000000    -0.000000     0.707107     0.707107     0.000000     0.000000     0.000000
    8    -1.000000   180.000000    -0.000000     0.707107     0.707107     0.000000     0.000000     0.000000
    9     1.000000   180.000000     0.707107    -0.707107    -0.000000     0.000000     0.000000     0.000000
   10    -1.000000   180.000000     0.707107    -0.707107    -0.000000     0.000000     0.000000     0.000000
   11     1.000000   180.000000     0.707107     0.000000     0.707107     0.000000     0.000000     0.000000
   12    -1.000000   180.000000     0.707107     0.000000     0.707107     0.000000     0.000000     0.000000

 SYSTEM =  unknown system
 POSCAR =  MLIP output to VASP

 Startparameter for this run:
   NWRITE =      2    write-flag & timer
   PREC   = accura    normal or accurate (medium, high low for compatibility)
   ISTART =      0    job   : 0-new  1-cont  2-samecut
   ICHARG =      2    charge: 1-file 2-atom 10-const
   ISPIN  =      1    spin polarized calculation?
   LNONCOLLINEAR =      F non collinear calculations
   LSORBIT =      F    spin-orbit coupling
   INIWAV =      1    electr: 0-lowe 1-rand  2-diag
   LASPH  =      F    aspherical Exc in radial PAW
   METAGGA=      F    non-selfconsistent MetaGGA calc.

 Electronic Relaxation 1
   ENCUT  =  370.0 eV  27.19 Ry    5.21 a.u.   4.34  4.34 31.91*2*pi/ulx,y,z
   ENINI  =  370.0     initial cutoff
   ENAUG  =  758.2 eV  augmentation charge cutoff
   NELM   =     60;   NELMIN=  2; NELMDL= -5     # of ELM steps
   EDIFF  = 0.1E-03   stopping-criterion for ELM
   LREAL  =      F    real-space projection
   NLSPLINE    = F    spline interpolate recip. space projectors
   LCOMPAT=      F    compatible to vasp.4.4
   GGA_COMPAT  = T    GGA compatible to vasp.4.4-vasp.4.6
   LMAXPAW     = -100 max onsite density
   LMAXMIX     =    2 max onsite mixed and CHGCAR
   VOSKOWN=      0    Vosko Wilk Nusair interpolation
   ROPT   =    0.00000   0.00000
 Ionic relaxation
   EDIFFG = 0.1E-02   stopping-criterion for IOM
   NSW    =      0    number of steps for IOM
   NBLOCK =      1;   KBLOCK =      1    inner block; outer block
   IBRION =     -1    ionic relax: 0-MD 1-quasi-New 2-CG
   NFREE  =      0    steps in history (QN), initial steepest desc. (CG)
   ISIF   =      3    stress and relaxation
   IWAVPR =     10    prediction:  0-non 1-charg 2-wave 3-comb
   ISYM   =      2    0-nonsym 1-usesym 2-fastsym
   LCORR  =      T    Harris-Foulkes like correction to forces

   POTIM  = 0.5000    time-step for ionic-motion
   TEIN   =    0.0    initial temperature
   TEBEG  =    0.0;   TEEND  =   0.0 temperature during run
   SMASS  =  -3.00    Nose mass-parameter (am)
   estimated Nose-frequenzy (Omega)   =  0.10E-29 period in steps =****** mass=  -0.175E-27a.u.
   SCALEE = 1.0000    scale energy and forces
   NPACO  =    256;   APACO  = 16.0  distance and # of slots for P.C.
   PSTRESS=    0.0 pullay stress

  Mass of Ions in am
   POMASS =  63.55195.08
  Ionic Valenz
   ZVAL   =  17.00 16.00
  Atomic Wigner-Seitz radii
  virtual crystal weights
   VCA    =   1.00  1.00
   NELECT =     145.0000    total number of electrons
   NUPDOWN=      -1.0000    fix difference up-down

 DOS related values:
   EMIN   =  10.00;   EMAX   =-10.00  energy-range for DOS
   EFERMI =   0.00
   ISMEAR =     2;   SIGMA  =   0.01  broadening in eV -4-tet -1-fermi 0-gaus

 Electronic relaxation 2 (details)
   IALGO  =     38    algorithm
   LDIAG  =      T    sub-space diagonalisation (order eigenvalues)
   LSUBROT=      F    optimize rotation matrix (better conditioning)
   TURBO    =      0    0=normal 1=particle mesh
   IRESTART =      0    0=no restart 2=restart with 2 vectors
   NREBOOT  =      0    no. of reboots
   NMIN     =      0    reboot dimension
   EREF     =   0.00    reference energy to select bands
   IMIX   =      4    mixing-type and parameters
     AMIX     =   0.40;   BMIX     =  1.00
     AMIX_MAG =   1.60;   BMIX_MAG =  1.00
     AMIN     =   0.10
     WC   =   100.;   INIMIX=   1;  MIXPRE=   1;  MAXMIX= -45

 Intra band minimization:
   WEIMIN = 0.0000     energy-eigenvalue tresh-hold
   EBREAK =  0.28E-06  absolut break condition
   DEPER  =   0.30     relativ break condition

   TIME   =   0.40     timestep for ELM

  volume/ion in A,a.u.               =      15.01       101.31
  Fermi-wavevector in a.u.,A,eV,Ry     =   1.676120  3.167407 38.223904  2.809378
  Thomas-Fermi vector in A             =   2.760619

 Write flags
   LWAVE        =      T    write WAVECAR
   LDOWNSAMPLE  =      F    k-point downsampling of WAVECAR
   LCHARG       =      T    write CHGCAR
   LVTOT        =      F    write LOCPOT, total local potential
   LVHAR        =      F    write LOCPOT, Hartree potential only
   LELF         =      F    write electronic localiz. function (ELF)
   LORBIT       =      0    0 simple, 1 ext, 2 COOP (PROOUT), +10 PAW based schemes

 Dipole corrections
   LMONO  =      F    monopole corrections only (constant potential shift)
   LDIPOL =      F    correct potential (dipole corrections)
   IDIPOL =      0    1-x, 2-y, 3-z, 4-all directions
   EPSILON=  1.0000000 bulk dielectric constant

 Exchange correlation treatment:
   GGA     =    --    GGA type
   VOSKOWN=      0    Vosko Wilk Nusair interpolation
   LHFCALC =     F    Hartree Fock is set to
   LHFONE  =     F    Hartree Fock one center treatment
   AEXX    =    0.0000 exact exchange contribution

 Linear response parameters
   LEPSILON=     F    determine dielectric tensor
   LRPA    =     F    only Hartree local field effects (RPA)
   LNABLA  =     F    use nabla operator in PAW spheres
   LVEL    =     F    velocity operator in full k-point grid
   LINTERFAST=   F  fast interpolation
   KINTER  =     0    interpolate to denser k-point grid
   CSHIFT  =0.1000    complex shift for real part using Kramers Kronig
   OMEGAMAX=  -1.0    maximum frequency
   DEG_THRESHOLD= 0.2000000E-02 threshold for treating states as degnerate
   RTIME   =   -0.100 relaxation time in fs
  (WPLASMAI=    0.000 imaginary part of plasma frequency in eV, 0.658/RTIME)
   DFIELD  = 0.0000000 0.0000000 0.0000000 field for delta impulse in time

 Orbital magnetization related:
   ORBITALMAG=     F  switch on orbital magnetization
   LCHIMAG   =     F  perturbation theory with respect to B field
   DQ        =  0.001000  dq finite difference perturbation B field
   LLRAUG    =     F  two centre corrections for induced B field

 Static calculation
 charge density and potential will be updated during run
 non-spin polarized calculation
 Variant of blocked Davidson
 Davidson routine will perform the subspace rotation
 perform sub-space diagonalisation
    after iterative eigenvector-optimisation
 modified Broyden-mixing scheme, WC =      100.0
 initial mixing is a Kerker type mixing with AMIX =  0.4000 and BMIX =      1.0000
 Hartree-type preconditioning will be used
 using additional bands           15
 reciprocal scheme for non local part
 use partial core corrections
 calculate Harris-corrections to forces
   (improved forces if not selfconsistent)
 use gradient corrections
 use of overlap-Matrix (Vanderbilt PP)
 Methfessel and Paxton  Order N= 2 SIGMA  =   0.01

  energy-cutoff  :      370.00
  volume of cell :      135.11
      direct lattice vectors                 reciprocal lattice vectors
[...]
 k-point ** :   0.2500-0.4500-0.3333  plane waves:    2193
 k-point ** :   0.2667-0.4833-0.3333  plane waves:    2192
 k-point ** :   0.2833-0.5167-0.3333  plane waves:    2181
 k-point ** :   0.3000-0.5500-0.3333  plane waves:    2182
 k-point ** :   0.3167-0.5833-0.3333  plane waves:    2174
 k-point ** :   0.3333-0.6167-0.3333  plane waves:    2169
 k-point ** :  -0.6000 0.2500-0.3333  plane waves:    2170
 k-point ** :  -0.5833 0.2167-0.3333  plane waves:    2177
 k-point ** :  -0.5667 0.1833-0.3333  plane waves:    2180
 k-point ** :  -0.5500 0.1500-0.3333  plane waves:    2179
 k-point ** :  -0.5333 0.1167-0.3333  plane waves:    2179
 k-point ** :  -0.5167 0.0833-0.3333  plane waves:    2177
 k-point ** :  -0.5000 0.0500-0.3333  plane waves:    2172
 k-point ** :  -0.4833 0.0167-0.3333  plane waves:    2159
 k-point ** :   0.1000-0.1000 0.0000  plane waves:    2223
 k-point ** :   0.1167-0.1333 0.0000  plane waves:    2217
 k-point ** :   0.1333-0.1667 0.0000  plane waves:    2203
 k-point ** :   0.1500-0.2000 0.0000  plane waves:    2197
 k-point ** :   0.1667-0.2333 0.0000  plane waves:    2190
 k-point ** :   0.1833-0.2667 0.0000  plane waves:    2188
 k-point ** :   0.2000-0.3000 0.0000  plane waves:    2180
 k-point ** :   0.2167-0.3333 0.0000  plane waves:    2182
 k-point ** :   0.2333-0.3667 0.0000  plane waves:    2180
 k-point ** :   0.2500-0.4000 0.0000  plane waves:    2182
 k-point ** :   0.2667-0.4333 0.0000  plane waves:    2184
 k-point ** :   0.2833-0.4667 0.0000  plane waves:    2179
 k-point ** :   0.3000-0.5000 0.0000  plane waves:    2183
 k-point ** :   0.3167-0.5333 0.0000  plane waves:    2179
 k-point ** :   0.3333-0.5667 0.0000  plane waves:    2182
 k-point ** :  -0.5500 0.2000 0.0000  plane waves:    2182
 k-point ** :  -0.5333 0.1667 0.0000  plane waves:    2184
 k-point ** :  -0.5167 0.1333 0.0000  plane waves:    2178
 k-point ** :  -0.5000 0.1000 0.0000  plane waves:    2178
[...]
 k-point ** :   0.3333-0.4167-0.3333  plane waves:    2170
 k-point ** :  -0.4000 0.0500-0.3333  plane waves:    2164
 k-point ** :  -0.3833 0.0167-0.3333  plane waves:    2171
 k-point ** :   0.3000-0.3000 0.0000  plane waves:    2192
 k-point ** :   0.3167-0.3333 0.0000  plane waves:    2174
 k-point ** :   0.3333-0.3667 0.0000  plane waves:    2169
 k-point ** :  -0.3500 0.0000 0.0000  plane waves:    2170
 k-point ** :   0.3000-0.3000 0.3333  plane waves:    2182
 k-point ** :   0.3167-0.3333 0.3333  plane waves:    2182
 k-point ** :   0.3333-0.3667 0.3333  plane waves:    2172
 k-point ** :  -0.3500 0.0000 0.3333  plane waves:    2171
 k-point ** :   0.3000-0.3000-0.3333  plane waves:    2182
 k-point ** :   0.3167-0.3333-0.3333  plane waves:    2182
 k-point ** :   0.3333-0.3667-0.3333  plane waves:    2172
 k-point ** :  -0.3500 0.0000-0.3333  plane waves:    2171

 maximum and minimum number of plane-waves per node :      2253     2156

 maximum number of plane-waves:      2253
 maximum index in each direction:
   IXMAX=    4   IYMAX=    4   IZMAX=   32
   IXMIN=   -4   IYMIN=   -4   IZMIN=  -32

 serial   3D FFT for wavefunctions
 parallel 3D FFT for charge:
    minimum data exchange during FFTs selected (reduces bandwidth)

 Broyden mixing: mesh for mixing (old mesh)
   NGX =  9   NGY =  9   NGZ = 63
  (NGX  = 36   NGY  = 36   NGZ  =256)
  gives a total of   5103 points

 initial charge density was supplied:
 charge density of overlapping atoms calculated
 number of electron     145.0000000 magnetization
 keeping initial charge density in first step

 Maximum index for augmentation-charges         2545 (set IRDMAX)

 First call to EWALD:  gamma=   0.345
 Maximum number of real-space cells 5x 5x 1
 Maximum number of reciprocal cells 2x 2x 9

--------------------------------------- Iteration      1(   1)  ---------------------------------------

 eigenvalue-minimisations  : 67168
 total energy-change (2. order) : 0.1770933E+04  (-0.8030054E+04)
 number of electron     145.0000000 magnetization
 augmentation part      145.0000000 magnetization

 Free energy of the ion-electron system (eV)
  alpha Z        PSCENC =      1401.74017612
  Ewald energy   TEWEN  =    -19680.02412815
  -Hartree energ DENC   =     -4595.61487174
  -exchange      EXHF   =         0.00000000
  -V(xc)+E(xc)   XCENC  =       618.87942685
  PAW double counting   =     20005.89735317   -19876.01545837
  entropy T*S    EENTRO =        -0.00003017
  eigenvalues    EBANDS =       350.98506474
  atomic energy  EATOM  =     23545.08561592
  Solvation  Ediel_sol  =         0.00000000
  free energy    TOTEN  =      1770.93314839 eV

  energy without entropy =     1770.93317855  energy(sigma->0) =     1770.93315593

[...]

 eigenvalue-minimisations  : 64208
 total energy-change (2. order) :-0.1732806E+04  (-0.1650636E+04)
 number of electron     145.0000000 magnetization
 augmentation part      145.0000000 magnetization

[...]

 Broyden mixing:
  rms(total) = 0.43320E+01    rms(broyden)= 0.43313E+01
  rms(prec ) = 0.43669E+01
  weight for this iteration     100.00

[...]

 eigenvalues of (default mixing * dielectric matrix)
  average eigenvalue GAMMA=   1.0880
  1.0880

[...]

 eigenvalue-minimisations  : 53296
 total energy-change (2. order) :-0.5636055E-04  (-0.1254515E-03)
 number of electron     145.0000051 magnetization
 augmentation part       43.7087416 magnetization

 Broyden mixing:
  rms(total) = 0.68205E+00    rms(broyden)= 0.68205E+00
  rms(prec ) = 0.69557E+00
  weight for this iteration     100.00

 eigenvalues of (default mixing * dielectric matrix)
  average eigenvalue GAMMA=   0.9131
  2.7998  2.7998  2.4351  1.5817  1.5817  0.9407  0.9407  0.7359  0.7359  0.5907
  0.5907  0.3458  0.0782  0.2786  0.2117  0.2117  0.3025  0.0217  0.1663

[...]

--------------------------------------- Iteration      1(  25)  ---------------------------------------

 eigenvalue-minimisations  : 34760
 total energy-change (2. order) : 0.3302043E-04  (-0.1532475E-05)
 number of electron     145.0000051 magnetization
 augmentation part       43.7087416 magnetization

 Free energy of the ion-electron system (eV)
  alpha Z        PSCENC =      1401.74017612
  Ewald energy   TEWEN  =    -19680.02412815
  -Hartree energ DENC   =     -4408.66685684
  -exchange      EXHF   =         0.00000000
  -V(xc)+E(xc)   XCENC  =       611.07701984
  PAW double counting   =     22202.42868017   -22100.47033026
  entropy T*S    EENTRO =        -0.00002929
  eigenvalues    EBANDS =     -1623.63211528
  atomic energy  EATOM  =     23545.08561592
  Solvation  Ediel_sol  =         0.00000000
  free energy    TOTEN  =       -52.46196776 eV

  energy without entropy =      -52.46193847  energy(sigma->0) =      -52.46196044

 average (electrostatic) potential at core
  the test charge radii are     0.8297  0.9952
  (the norm of the test charge is              1.0000)
       1 -74.6944       2 -89.3532       3 -89.3045       4 -89.5293       5 -89.4699
       6 -89.4699       7 -89.5293       8 -89.3045       9 -89.3532

 E-fermi :  11.2754     XC(G=0): -13.7836     alpha+bet :-16.6407

 k-point     1 :       0.0000    0.0000    0.0000
  band No.  band energies     occupation
      1     -58.1445      2.00000
      2     -58.1132      2.00000
      3     -58.1128      2.00000
      4     -41.6860      2.00000
      5     -41.6178      2.00000
      6     -41.4942      2.00000
      7     -41.3918      2.00000
      8     -41.3365      2.00000
      9     -41.3028      2.00000
     10     -41.3027      2.00000
     11     -41.2999      2.00000
     12     -41.2999      2.00000
     13     -41.2684      2.00000
     14     -41.2577      2.00000
     15     -41.2577      2.00000
     16     -41.2264      2.00000
     17     -41.2263      2.00000
     18     -41.1837      2.00000
     19     -41.1837      2.00000
     20     -41.1831      2.00000
     21     -41.1831      2.00000
     22     -41.1398      2.00000
     23     -41.1398      2.00000
     24     -41.1398      2.00000
     25     -41.1398      2.00000
     26     -41.1314      2.00000
     27     -41.1298      2.00000
     28       1.0758      2.00000
     29       1.4446      2.00000
     30       1.8864      2.00000
     31       2.7836      2.00000
     32       3.1234      2.00000
     33       3.7588      2.00000
     34       3.8153      2.00000
     35       3.9023      2.00000
     36       5.3384      2.00000
     37       7.1238      2.00000
     38       7.1546      2.00000
     39       7.3403      2.00000
     40       7.4074      2.00000
     41       7.4483      2.00000
     42       7.4483      2.00000
     43       7.5207      2.00000
     44       7.5207      2.00000
     45       7.5450      2.00000
     46       7.5450      2.00000
     47       7.6550      2.00000
     48       7.6550      2.00000
     49       7.7121      2.00000
     50       7.7121      2.00000
     51       7.8060      2.00000
     52       7.8060      2.00000
     53       7.8420      2.00000
     54       7.8420      2.00000
     55       7.9328      2.00000
     56       7.9364      2.00000
     57       7.9364      2.00000
     58       8.1072      2.00000
     59       8.7043      2.00000
     60       8.9048      2.00000
[...]
     74      10.2743      2.00000
     75      10.2888      2.00000
     76      10.5860      2.00000
     77      10.5860      2.00000
     78      11.0606      2.00000
     79      11.0606      2.00000
     80      11.2571      1.99296
     81      11.2571      1.99301
     82      17.0685      0.00000
     83      17.8862      0.00000
     84      21.0370      0.00000
     85      21.5957      0.00000
     86      25.0802      0.00000
     87      25.3218      0.00000
     88      25.5930      0.00000

[...]

 k-point   332 :      -0.3500    0.0000   -0.3333
  band No.  band energies     occupation
      1     -58.1418      2.00000
      2     -58.1356      2.00000
      3     -58.1168      2.00000
      4     -41.6334      2.00000
      5     -41.6234      2.00000
      6     -41.6061      2.00000
      7     -41.5780      2.00000
      8     -41.5384      2.00000
      9     -41.5011      2.00000
     10     -41.4806      2.00000
     11     -41.4784      2.00000
     12     -41.4498      2.00000
     13     -41.4121      2.00000
     14     -41.3850      2.00000
     15     -41.3768      2.00000
     16     -41.3701      2.00000
     17     -41.3293      2.00000
     18     -41.3176      2.00000
     19     -41.2863      2.00000
     20     -41.2766      2.00000
     21     -41.2706      2.00000
     22     -41.2610      2.00000
     23     -41.2607      2.00000
     24     -41.2032      2.00000
     25     -41.2027      2.00000
     26     -41.1398      2.00000
     27     -41.1396      2.00000
     28       3.8682      2.00000
     29       4.0889      2.00000
     30       4.4121      2.00000
     31       4.4721      2.00000
     32       4.6351      2.00000
     33       4.8641      2.00000
     34       5.0484      2.00000
     35       5.0818      2.00000
     36       5.2800      2.00000
     37       5.4227      2.00000
     38       5.6293      2.00000
     39       6.1417      2.00000
     40       6.3029      2.00000
     41       6.7414      2.00000
     42       7.0934      2.00000
     43       7.3143      2.00000
     44       7.5592      2.00000
     45       7.5773      2.00000
     46       7.6081      2.00000
     47       7.7020      2.00000
     48       7.9395      2.00000
     49       7.9703      2.00000
     50       8.1610      2.00000
     51       8.2489      2.00000
     52       8.3174      2.00000
     53       8.5607      2.00000
     54       8.6165      2.00000
     55       8.9033      2.00000
     56       8.9674      2.00000
     57       9.0474      2.00000
     58       9.1474      2.00000
     59       9.6531      2.00000
     60       9.7215      2.00000
[...]
     74      10.9396      2.00000
     75      11.1962      2.00000
     76      11.4769      0.00000
     77      11.5340      0.00000
     78      12.5646      0.00000
     79      14.5206      0.00000
     80      14.8022      0.00000
     81      16.3778      0.00000
     82      18.0058      0.00000
     83      18.8927      0.00000
     84      19.1102      0.00000
     85      19.4558      0.00000
     86      20.4038      0.00000
     87      20.7395      0.00000
     88      21.8707      0.00000

 soft charge-density along one line, spin component           1
         0         1         2         3         4         5         6         7         8         9
 total charge-density along one line

------------------------ aborting loop because EDIFF is reached ----------------------------------------

  FORCE on cell =-STRESS in cart. coord.  units (eV):
  Direction    XX          YY          ZZ          XY          YZ          ZX
  Alpha Z  1401.74018  1401.74018  1401.74018
  Ewald   -6560.00360 -6560.00360 -6560.00360   -13.57731    13.57731    13.57731
  Hartree  1468.24401  1468.24401  1468.24401   -22.74197    22.74197    22.74197
  E(xc)    -818.50691  -818.50642  -818.50691    -0.06402     0.06402     0.06351
  Local    1058.18438  1058.18502  1058.18438    30.80627   -30.80627   -30.80691
  n-local  -323.36755  -335.99136  -327.97520     3.97564    -7.58397    11.31537
  augment   770.99731   770.99290   770.99731     0.72832    -0.72833    -0.72362
  Kinetic  3011.51808  2989.45602  3003.19166    16.97415   -10.68937    17.61203
  Fock        0.00000     0.00000     0.00000     0.00000     0.00000     0.00000
  Total      -7.06851    -7.06851    -7.06851    -1.41675     1.41675     1.41675
  in kB     -83.82263   -83.82263   -83.82263   -16.80061    16.80061    16.80061

 VOLUME and BASIS-vectors are now :
  energy-cutoff  :      370.00
  volume of cell :      135.11
      direct lattice vectors                 reciprocal lattice vectors
     0.000000000  1.957950000  1.957950000     0.170246091  0.170246091  0.340492181
     1.957950000 -1.957950000  0.000000000     0.340492181 -0.170246091  0.170246091
    11.747700000 11.747700000-11.747700000     0.028374348  0.028374348 -0.028374348

  length of vectors
     2.768959444  2.768959444 20.347613272     0.417016053  0.417016053  0.049145813

 FORCES acting on ions
    electron-ion (+dipol)            ewald-force                    non-local-force                 convergence-correction
   0.625E-13 -.285E-12 0.190E-12   0.227E-12 0.000E+00 0.455E-12   0.948E-23 0.161E-22 0.376E-23   -.244E-11 -.417E-11 0.503E-11
   -.108E+03 -.108E+03 0.108E+03   0.969E+02 0.969E+02 -.969E+02   0.238E+00 0.238E+00 -.238E+00   0.106E+02 0.106E+02 -.106E+02
   -.882E+02 -.882E+02 0.882E+02   0.699E+02 0.699E+02 -.699E+02   0.425E-01 0.425E-01 -.425E-01   0.184E+02 0.184E+02 -.184E+02
   -.580E+02 -.580E+02 0.580E+02   0.420E+02 0.420E+02 -.420E+02   0.101E+00 0.101E+00 -.101E+00   0.160E+02 0.160E+02 -.160E+02
   -.189E+02 -.189E+02 0.189E+02   0.140E+02 0.140E+02 -.140E+02   0.257E-01 0.257E-01 -.257E-01   0.487E+01 0.487E+01 -.487E+01
   0.189E+02 0.189E+02 -.189E+02   -.140E+02 -.140E+02 0.140E+02   -.257E-01 -.257E-01 0.257E-01   -.487E+01 -.487E+01 0.487E+01
   0.580E+02 0.580E+02 -.580E+02   -.420E+02 -.420E+02 0.420E+02   -.101E+00 -.101E+00 0.101E+00   -.160E+02 -.160E+02 0.160E+02
   0.882E+02 0.882E+02 -.882E+02   -.699E+02 -.699E+02 0.699E+02   -.425E-01 -.425E-01 0.425E-01   -.184E+02 -.184E+02 0.184E+02
   0.108E+03 0.108E+03 -.108E+03   -.969E+02 -.969E+02 0.969E+02   -.238E+00 -.238E+00 0.238E+00   -.106E+02 -.106E+02 0.106E+02
   -.233E-10 -.194E-10 0.211E-10   0.227E-12 0.909E-12 -.142E-13   0.000E+00 0.278E-16 0.278E-16   0.214E-11 -.485E-11 0.495E-11

 POSITION                                       TOTAL-FORCE (eV/Angst)
      0.00000      0.00000      0.00000         0.000000      0.000000     -0.000000
      1.95795      1.95795     -0.00000        -0.731099     -0.731099      0.731099
      3.91590      1.95795     -1.95795         0.087618      0.087618     -0.087618
      3.91590      3.91590     -3.91590         0.037123      0.037123     -0.037123
      5.87385      5.87385     -3.91590        -0.004386     -0.004386      0.004386
      7.83180      5.87385     -5.87385         0.004386      0.004386     -0.004386
      7.83180      7.83180     -7.83180        -0.037123     -0.037123      0.037123
      9.78975      9.78975     -7.83180        -0.087618     -0.087618      0.087618
     11.74770      9.78975     -9.78975         0.731099      0.731099     -0.731099
    total drift:                               -0.000000     -0.000000      0.000000

  FREE ENERGIE OF THE ION-ELECTRON SYSTEM (eV)
  free  energy   TOTEN  =       -52.46196776 eV

  energy  without entropy=      -52.46193847  energy(sigma->0) =      -52.46196044

 writing wavefunctions